qbf_easy_train/easy_3126_UNSAT.qdimacs
p cnf 23 58
a 17 12 22 0
e 1 2 3 4 5 6 7 8 9 10 11 13 14 15 16 18 19 20 21 23 0
3 -1 0
3 2 0
1 -2 -3 0
-4 -2 0
-4 -1 0
2 1 4 0
-3 -4 -5 0
3 4 -5 0
-3 4 5 0
3 -4 5 0
6 2 -7 0
-6 -2 -7 0
6 -2 7 0
-6 2 7 0
7 8 -9 0
-7 -8 -9 0
7 -8 9 0
-7 8 9 0
12 -10 0
12 11 0
10 -11 -12 0
13 8 0
13 2 0
-8 -2 -13 0
-15 14 0
-15 10 0
-14 -10 15 0
-17 15 0
-17 16 0
-15 -16 17 0
-18 -13 0
-18 17 0
13 -17 18 0
19 -2 0
19 -10 0
2 10 -19 0
18 19 -20 0
-18 -19 -20 0
18 -19 20 0
-18 19 20 0
12 -20 -21 0
-12 20 -21 0
12 20 21 0
-12 -20 21 0
9 -21 -22 0
-9 21 -22 0
9 21 22 0
-9 -21 22 0
-5 -22 -23 0
5 22 -23 0
-5 22 23 0
5 -22 23 0
5 8 -12 0
14 -4 -20 13 0
-23 15 -12 13 0
19 -17 7 11 -10 8 13 23 0
-19 15 -21 -8 9 23 0
23 0
