sat_easy_train/easy_3126_UNSAT.dimacs
p cnf 148 500
4 2 0
4 3 0
-2 -3 -4 0
8 6 0
8 7 0
-6 -7 -8 0
-9 -8 0
-9 3 0
8 -3 9 0
-5 9 -10 0
5 -9 -10 0
-5 -9 10 0
5 9 10 0
11 4 0
11 10 0
-4 -10 -11 0
12 1 0
12 -11 0
-1 11 -12 0
-6 -5 -13 0
6 5 -13 0
-6 5 13 0
6 -5 13 0
15 -13 0
15 -14 0
13 14 -15 0
18 -17 0
18 -3 0
17 3 -18 0
16 -18 -19 0
-16 18 -19 0
16 18 19 0
-16 -18 19 0
-20 -15 0
-20 -19 0
15 19 20 0
9 -21 0
-9 -21 0
-22 20 0
-22 -21 0
-20 21 22 0
-23 -19 -24 0
23 19 -24 0
-23 19 24 0
23 -19 24 0
25 -20 0
25 -5 0
20 5 -25 0
-26 24 0
-26 -25 0
-24 25 26 0
1 27 -28 0
-1 -27 -28 0
1 -27 28 0
-1 27 28 0
-26 28 -29 0
26 -28 -29 0
-26 -28 29 0
26 28 29 0
-30 22 0
-30 29 0
-22 -29 30 0
19 -31 -32 0
-19 31 -32 0
19 31 32 0
-19 -31 32 0
-33 2 0
-33 -32 0
-2 32 33 0
-35 -34 0
-35 -34 0
34 35 0
-33 35 -36 0
33 -35 -36 0
-33 -35 36 0
33 35 36 0
37 30 0
37 -36 0
-30 36 -37 0
-12 -37 -38 0
12 37 -38 0
-12 37 38 0
12 -37 38 0
-39 6 0
-39 16 0
-6 -16 39 0
40 39 0
40 33 0
-39 -33 -40 0
-40 1 -41 0
40 -1 -41 0
-40 -1 41 0
40 1 41 0
42 38 0
42 -41 0
-38 41 -42 0
43 3 -44 0
-43 -3 -44 0
43 -3 44 0
-43 3 44 0
21 -44 -45 0
-21 44 -45 0
21 44 45 0
-21 -44 45 0
-46 -4 0
-46 -45 0
4 45 46 0
47 20 0
47 -46 0
-20 46 -47 0
48 17 0
48 47 0
-17 -47 -48 0
50 -3 0
50 49 0
3 -49 -50 0
51 50 0
51 -43 0
-50 43 -51 0
7 31 -52 0
-7 -31 -52 0
7 -31 52 0
-7 31 52 0
-53 51 0
-53 52 0
-51 -52 53 0
-54 -39 0
-54 -53 0
39 53 54 0
25 -54 -55 0
-25 54 -55 0
25 54 55 0
-25 -54 55 0
56 44 0
56 -32 0
-44 32 -56 0
55 -56 -57 0
-55 56 -57 0
55 56 57 0
-55 -56 57 0
58 48 0
58 -57 0
-48 57 -58 0
42 -58 -59 0
-42 58 -59 0
42 58 59 0
-42 -58 59 0
18 -13 -60 0
-18 13 -60 0
18 13 60 0
-18 -13 60 0
-51 25 -61 0
51 -25 -61 0
-51 -25 61 0
51 25 61 0
62 61 0
62 7 0
-61 -7 -62 0
63 -60 0
63 62 0
60 -62 -63 0
-64 -14 0
-64 -45 0
14 45 64 0
64 49 -65 0
-64 -49 -65 0
64 -49 65 0
-64 49 65 0
-66 63 0
-66 65 0
-63 -65 66 0
-67 62 0
-67 27 0
-62 -27 67 0
68 -45 0
68 -67 0
45 67 -68 0
-8 46 -69 0
8 -46 -69 0
-8 -46 69 0
8 46 69 0
-70 68 0
-70 -69 0
-68 69 70 0
66 -70 -71 0
-66 70 -71 0
66 70 71 0
-66 -70 71 0
72 3 0
72 49 0
-3 -49 -72 0
-71 72 -73 0
71 -72 -73 0
-71 -72 73 0
71 72 73 0
74 -16 0
74 -4 0
16 4 -74 0
75 73 0
75 74 0
-73 -74 -75 0
-76 -31 0
-76 21 0
31 -21 76 0
-77 -21 0
-77 21 0
78 77 0
78 39 0
-77 -39 -78 0
79 -76 0
79 78 0
76 -78 -79 0
-80 -79 0
-80 -35 0
79 35 80 0
-81 -54 0
-81 11 0
54 -11 81 0
-82 -18 0
-82 -49 0
18 49 82 0
83 82 0
83 1 0
-82 -1 -83 0
-84 76 0
-84 43 0
-76 -43 84 0
85 84 0
85 8 0
-84 -8 -85 0
83 -85 -86 0
-83 85 -86 0
83 85 86 0
-83 -85 86 0
-87 -81 0
-87 86 0
81 -86 87 0
88 -39 0
88 27 0
39 -27 -88 0
-89 -87 0
-89 -88 0
87 88 89 0
-90 80 0
-90 -89 0
-80 89 90 0
-91 75 0
-91 -90 0
-75 90 91 0
-19 13 -92 0
19 -13 -92 0
-19 -13 92 0
19 13 92 0
-93 3 0
-93 92 0
-3 -92 93 0
94 21 0
94 -31 0
-21 31 -94 0
-95 94 0
-95 -82 0
-94 82 95 0
96 -93 0
96 -95 0
93 95 -96 0
97 51 0
97 17 0
-51 -17 -97 0
-98 -34 0
-98 97 0
34 -97 98 0
99 50 0
99 -98 0
-50 98 -99 0
-100 33 0
-100 -14 0
-33 14 100 0
101 -99 0
101 100 0
99 -100 -101 0
102 5 0
102 19 0
-5 -19 -102 0
102 31 -103 0
-102 -31 -103 0
102 -31 103 0
-102 31 103 0
104 15 0
104 -39 0
-15 39 -104 0
-103 104 -105 0
103 -104 -105 0
-103 -104 105 0
103 104 105 0
-106 101 0
-106 -105 0
-101 105 106 0
-3 1 -107 0
3 -1 -107 0
-3 -1 107 0
3 1 107 0
20 107 -108 0
-20 -107 -108 0
20 -107 108 0
-20 107 108 0
-109 108 0
-109 -35 0
-108 35 109 0
-7 -40 -110 0
7 40 -110 0
-7 40 110 0
7 -40 110 0
27 3 -111 0
-27 -3 -111 0
27 -3 111 0
-27 3 111 0
112 67 0
112 -111 0
-67 111 -112 0
113 -110 0
113 112 0
110 -112 -113 0
-77 -94 -114 0
77 94 -114 0
-77 94 114 0
77 -94 114 0
114 107 -115 0
-114 -107 -115 0
114 -107 115 0
-114 107 115 0
116 115 0
116 -61 0
-115 61 -116 0
-117 31 0
-117 18 0
-31 -18 117 0
118 -117 0
118 -7 0
117 7 -118 0
-119 116 0
-119 -118 0
-116 118 119 0
-120 113 0
-120 119 0
-113 -119 120 0
121 109 0
121 -120 0
-109 120 -121 0
-122 -9 0
-122 39 0
9 -39 122 0
123 65 0
123 -62 0
-65 62 -123 0
-123 -17 -124 0
123 17 -124 0
-123 17 124 0
123 -17 124 0
-125 -122 0
-125 -124 0
122 124 125 0
21 19 -126 0
-21 -19 -126 0
21 -19 126 0
-21 19 126 0
-127 -10 0
-127 -126 0
10 126 127 0
-128 125 0
-128 -127 0
-125 127 128 0
129 121 0
129 -128 0
-121 128 -129 0
-106 129 -130 0
106 -129 -130 0
-106 -129 130 0
106 129 130 0
131 96 0
131 130 0
-96 -130 -131 0
91 -131 -132 0
-91 131 -132 0
91 131 132 0
-91 -131 132 0
-133 -59 0
-133 -132 0
59 132 133 0
134 -108 0
134 4 0
108 -4 -134 0
134 64 -135 0
-134 -64 -135 0
134 -64 135 0
-134 64 135 0
136 135 0
136 8 0
-135 -8 -136 0
-137 -20 0
-137 43 0
20 -43 137 0
-4 -32 -138 0
4 32 -138 0
-4 32 138 0
4 -32 138 0
-139 137 0
-139 -138 0
-137 138 139 0
140 -139 0
140 -8 0
139 8 -140 0
-141 13 0
-141 19 0
-13 -19 141 0
141 16 -142 0
-141 -16 -142 0
141 -16 142 0
-141 16 142 0
143 -140 0
143 -142 0
140 142 -143 0
144 -136 0
144 143 0
136 -143 -144 0
146 -145 0
146 64 0
145 -64 -146 0
-147 -144 0
-147 -146 0
144 146 147 0
133 -147 -148 0
-133 147 -148 0
133 147 148 0
-133 -147 148 0
56 -104 0
106 -50 72 0
-84 21 57 92 53 0
-78 77 71 41 101 0
72 -45 123 -18 0
31 111 117 97 -138 0
28 -82 73 9 -33 -13 0
113 37 95 130 0
23 -63 0
-71 63 -130 3 110 0
100 139 21 145 41 -76 0
-107 94 10 1 0
67 11 0
137 7 -53 -127 59 -14 0
-9 134 54 75 -118 0
-45 106 73 0
127 -61 40 118 0
-95 85 -77 0
17 79 140 0
64 -65 89 46 0
-135 38 0
37 -103 -67 -117 0
-75 146 90 -39 66 -129 0
-122 -63 -61 49 0
-4 -81 -35 -6 59 -75 0
-41 -124 -66 -25 59 54 0
9 -45 94 -114 82 -129 0
30 107 0
96 -102 117 -22 -98 0
103 -120 66 -135 -141 0
-60 99 -45 2 0
33 -126 -59 29 -123 0
-63 72 6 124 -130 0
30 14 0
90 53 -107 11 87 0
49 15 53 99 79 0
36 18 0
102 -4 -123 77 -83 37 0
106 127 -16 147 -86 0
84 46 101 0
-91 -11 75 0
78 -133 0
77 -124 50 128 -94 0
-12 -17 -78 116 -89 0
61 -86 0
145 112 0
-71 39 4 -132 0
37 75 -134 -136 0
-75 -148 -12 -22 64 -15 0
40 -12 -128 0
80 105 -18 -110 0
57 18 68 0
142 -144 128 -140 -84 0
-50 73 -111 77 0
74 -43 -57 -86 -65 -93 0
134 -140 35 -123 -90 21 0
-145 -22 0
-118 -7 121 -132 -82 -62 0
52 -107 -78 0
-23 -109 0
107 -109 -57 0
103 -37 -72 -13 143 0
-18 -86 0
122 -108 74 141 0
19 -65 91 -15 -26 0
148 0
